SCIP version 5.0.0 [precision: 8 byte] [memory: block] [mode: optimized] [LP solver: NONE] [GitHash: 3bbd232]
Copyright (C) 2002-2017 Konrad-Zuse-Zentrum fuer Informationstechnik Berlin (ZIB)

External codes: 
  Readline EditLine w  GNU library for command line editing (gnu.org/s/readline)
  CppAD 20160000.1     Algorithmic Differentiation of C++ algorithms developed by B. Bell (www.coin-or.org/CppAD)
  ZLIB 1.2.5           General purpose compression library by J. Gailly and M. Adler (zlib.net)
  GMP 6.1.2            GNU Multiple Precision Arithmetic Library developed by T. Granlund (gmplib.org)

user parameter file <scip.set> not found - using default parameters

read problem <../../Split_data/output/breast/6/1_sample_breast.logreg>
============

File name	:	../../Split_data/output/breast/6/1_sample_breast.logreg
Problem name 	:	1_sample_breast
Number of data	:	155
Number of var	:	33
The given data has linear dependence
17 sets of column vector are linearly dependent:
elements are all 0
elements are all 0
elements are all 0
elements are all 0
elements are all 0
elements are all 0

[dim=1] time: 0.003417
[dim=2] time: 0.006731
[dim=3] time: 0.009132
[dim=4] time: 0.011105
[dim=5] time: 0.013035
[dim=6] time: 0.014932
[dim=7] time: 0.016661
[dim=8] time: 0.018216
[dim=9] Time of forward = 0.019578sec.
AIC: 141.89
k: 8

[dim=16] time: 0.005488
[dim=15] time: 0.009204
[dim=14] time: 0.011856
[dim=13] time: 0.0155
[dim=12] time: 0.017632
[dim=11] time: 0.019912
[dim=10] time: 0.022179
[dim=9] time: 0.024071
[dim=8] time: 0.025508
[dim=7] Time of backward = 0.026896sec.
AIC: 141.98
k: 8
